unsat
(:max-memory         18.54
 :memory             18.44
 :nlsat-arith-var    3
 :nlsat-atoms        18
 :nlsat-bool-var     2
 :nlsat-clauses      16
 :nlsat-conflicts    3
 :nlsat-propagations 13
 :nlsat-stages       3
 :num-allocs         73950
 :rlimit-count       3985
 :time               0.00
 :total-time         0.02)
